cost: 539.78
Route 1:           0   23    8   38    2   30   25   18   29   28   35   11    0
Route 2:           0   24    5   17    9   37   21   20    7   36    6   44   45   32   22    1   33   14   15    0
Route 3:           0   31   27    0
Route 4:           0   47   34   19   50   26   13   10    3   43   39   48   49   41   12    4   42   46   40   16    0
